NAME: random-20-19723
TYPE: TSP
COMMENT: size=20 seed=19723
DIMENSION: 42
EDGE_WEIGHT_TYPE: EUC_2D
NODE_COORD_SECTION
+0 461 709
-0 461 709
+1 361 910
-1 543 111
+2 470 809
-2 859 427
+3 33 759
-3 663 460
+4 82 370
-4 706 730
+5 671 572
-5 55 61
+6 744 935
-6 566 635
+7 980 842
-7 893 494
+8 304 449
-8 131 628
+9 198 781
-9 355 948
+10 957 290
-10 448 802
+11 352 484
-11 165 290
+12 696 382
-12 24 585
+13 101 125
-13 969 522
+14 687 220
-14 186 351
+15 232 868
-15 173 428
+16 150 645
-16 268 501
+17 120 821
-17 329 591
+18 897 518
-18 539 2
+19 523 939
-19 982 757
+20 576 578
-20 903 257
PRECEDENCE_SECTION
+0 -0
+1 -1
+2 -2
+3 -3
+4 -4
+5 -5
+6 -6
+7 -7
+8 -8
+9 -9
+10 -10
+11 -11
+12 -12
+13 -13
+14 -14
+15 -15
+16 -16
+17 -17
+18 -18
+19 -19
+20 -20
EOF
